
Gurobi 9.1.2 (win64, Java) logging started Thu Nov 11 18:19:59 2021

Academic license - for non-commercial use only - expires 2022-10-30
Gurobi Optimizer version 9.1.2 build v9.1.2rc0 (win64)
Thread count: 6 physical cores, 12 logical processors, using up to 12 threads
Optimize a model with 30 rows, 200 columns and 400 nonzeros
Model fingerprint: 0x5b487bbf
Variable types: 0 continuous, 200 integer (200 binary)
Coefficient statistics:
  Matrix range     [1e+00, 1e+03]
  Objective range  [2e+01, 1e+03]
  Bounds range     [1e+00, 1e+00]
  RHS range        [1e+00, 1e+03]
Found heuristic solution: objective 4886.0000000
Presolve removed 9 rows and 121 columns
Presolve time: 0.00s
Presolved: 21 rows, 79 columns, 157 nonzeros
Variable types: 0 continuous, 79 integer (79 binary)
Presolve removed 2 rows and 8 columns
Presolved: 19 rows, 71 columns, 139 nonzeros


Root relaxation: objective 6.479675e+03, 43 iterations, 0.00 seconds

    Nodes    |    Current Node    |     Objective Bounds      |     Work
 Expl Unexpl |  Obj  Depth IntInf | Incumbent    BestBd   Gap | It/Node Time

     0     0 6479.67464    0    9 4886.00000 6479.67464  32.6%     -    0s
H    0     0                    6346.0000000 6479.67464  2.11%     -    0s
H    0     0                    6373.0000000 6479.67464  1.67%     -    0s
H    0     0                    6422.0000000 6479.67464  0.90%     -    0s
     0     0 6447.66670    0    5 6422.00000 6447.66670  0.40%     -    0s

Cutting planes:
  Gomory: 3
  Cover: 5
  Clique: 1
  MIR: 2
  StrongCG: 1

Explored 1 nodes (69 simplex iterations) in 0.01 seconds
Thread count was 12 (of 12 available processors)

Solution count 4: 6422 6373 6346 4886 

Optimal solution found (tolerance 1.00e-12)
Best objective 6.422000000000e+03, best bound 6.422000000000e+03, gap 0.0000%
